p cnf 73 442
-1 -2 0
-1 -3 0
-1 -4 0
-1 -5 0
-1 -6 0
-2 -3 0
-2 -4 0
-2 -5 0
-2 -6 0
-3 -4 0
-3 -5 0
-3 -6 0
-4 -5 0
-4 -6 0
-5 -6 0
1 2 3 4 5 6 0
-1 -7 0
-1 -8 0
-1 -9 0
-1 -10 0
-1 -11 0
-7 -8 0
-7 -9 0
-7 -10 0
-7 -11 0
-8 -9 0
-8 -10 0
-8 -11 0
-9 -10 0
-9 -11 0
-10 -11 0
1 7 8 9 10 11 0
-7 -12 0
-7 -13 0
-7 -14 0
-7 -15 0
-7 -16 0
-7 -17 0
-7 -18 0
-12 -13 0
-12 -14 0
-12 -15 0
-12 -16 0
-12 -17 0
-12 -18 0
-13 -14 0
-13 -15 0
-13 -16 0
-13 -17 0
-13 -18 0
-14 -15 0
-14 -16 0
-14 -17 0
-14 -18 0
-15 -16 0
-15 -17 0
-15 -18 0
-16 -17 0
-16 -18 0
-17 -18 0
7 12 13 14 15 16 17 18 0
-19 -20 0
19 20 0
-8 -21 0
-8 -22 0
-8 -23 0
-8 -24 0
-8 -25 0
-8 -26 0
-21 -22 0
-21 -23 0
-21 -24 0
-21 -25 0
-21 -26 0
-22 -23 0
-22 -24 0
-22 -25 0
-22 -26 0
-23 -24 0
-23 -25 0
-23 -26 0
-24 -25 0
-24 -26 0
-25 -26 0
8 21 22 23 24 25 26 0
-27 -28 0
-27 -29 0
-27 -30 0
-28 -29 0
-28 -30 0
-29 -30 0
27 28 29 30 0
-9 -31 0
-9 -32 0
-9 -33 0
-9 -34 0
-31 -32 0
-31 -33 0
-31 -34 0
-32 -33 0
-32 -34 0
-33 -34 0
9 31 32 33 34 0
-19 -21 0
-19 -35 0
-19 -36 0
-19 -37 0
-19 -38 0
-21 -35 0
-21 -36 0
-21 -37 0
-21 -38 0
-35 -36 0
-35 -37 0
-35 -38 0
-36 -37 0
-36 -38 0
-37 -38 0
19 21 35 36 37 38 0
-27 -39 0
-27 -40 0
-27 -41 0
-27 -42 0
-27 -43 0
-39 -40 0
-39 -41 0
-39 -42 0
-39 -43 0
-40 -41 0
-40 -42 0
-40 -43 0
-41 -42 0
-41 -43 0
-42 -43 0
27 39 40 41 42 43 0
-44 -45 0
-44 -46 0
-45 -46 0
44 45 46 0
-12 -22 0
-12 -31 0
-12 -47 0
-22 -31 0
-22 -47 0
-31 -47 0
12 22 31 47 0
-2 -32 0
-2 -35 0
-2 -44 0
-2 -48 0
-2 -49 0
-2 -50 0
-2 -51 0
-32 -35 0
-32 -44 0
-32 -48 0
-32 -49 0
-32 -50 0
-32 -51 0
-35 -44 0
-35 -48 0
-35 -49 0
-35 -50 0
-35 -51 0
-44 -48 0
-44 -49 0
-44 -50 0
-44 -51 0
-48 -49 0
-48 -50 0
-48 -51 0
-49 -50 0
-49 -51 0
-50 -51 0
2 32 35 44 48 49 50 51 0
-52 -53 0
-52 -54 0
-52 -55 0
-53 -54 0
-53 -55 0
-54 -55 0
52 53 54 55 0
-47 -56 0
-47 -57 0
-47 -58 0
-56 -57 0
-56 -58 0
-57 -58 0
47 56 57 58 0
-23 -28 0
-23 -33 0
-23 -45 0
-23 -59 0
-23 -60 0
-23 -61 0
-23 -62 0
-28 -33 0
-28 -45 0
-28 -59 0
-28 -60 0
-28 -61 0
-28 -62 0
-33 -45 0
-33 -59 0
-33 -60 0
-33 -61 0
-33 -62 0
-45 -59 0
-45 -60 0
-45 -61 0
-45 -62 0
-59 -60 0
-59 -61 0
-59 -62 0
-60 -61 0
-60 -62 0
-61 -62 0
23 28 33 45 59 60 61 62 0
-13 -36 0
-13 -39 0
-13 -52 0
-13 -56 0
-13 -59 0
-13 -63 0
-13 -64 0
-13 -65 0
-13 -66 0
-36 -39 0
-36 -52 0
-36 -56 0
-36 -59 0
-36 -63 0
-36 -64 0
-36 -65 0
-36 -66 0
-39 -52 0
-39 -56 0
-39 -59 0
-39 -63 0
-39 -64 0
-39 -65 0
-39 -66 0
-52 -56 0
-52 -59 0
-52 -63 0
-52 -64 0
-52 -65 0
-52 -66 0
-56 -59 0
-56 -63 0
-56 -64 0
-56 -65 0
-56 -66 0
-59 -63 0
-59 -64 0
-59 -65 0
-59 -66 0
-63 -64 0
-63 -65 0
-63 -66 0
-64 -65 0
-64 -66 0
-65 -66 0
13 36 39 52 56 59 63 64 65 66 0
-14 -37 0
-14 -40 0
-14 -48 0
-14 -67 0
-14 -68 0
-14 -69 0
-37 -40 0
-37 -48 0
-37 -67 0
-37 -68 0
-37 -69 0
-40 -48 0
-40 -67 0
-40 -68 0
-40 -69 0
-48 -67 0
-48 -68 0
-48 -69 0
-67 -68 0
-67 -69 0
-68 -69 0
14 37 40 48 67 68 69 0
-3 -10 0
-3 -29 0
-3 -41 0
-3 -46 0
-3 -49 0
-3 -53 0
-3 -57 0
-10 -29 0
-10 -41 0
-10 -46 0
-10 -49 0
-10 -53 0
-10 -57 0
-29 -41 0
-29 -46 0
-29 -49 0
-29 -53 0
-29 -57 0
-41 -46 0
-41 -49 0
-41 -53 0
-41 -57 0
-46 -49 0
-46 -53 0
-46 -57 0
-49 -53 0
-49 -57 0
-53 -57 0
3 10 29 41 46 49 53 57 0
-4 -11 0
-4 -24 0
-4 -30 0
-4 -54 0
-4 -63 0
-4 -67 0
-4 -70 0
-11 -24 0
-11 -30 0
-11 -54 0
-11 -63 0
-11 -67 0
-11 -70 0
-24 -30 0
-24 -54 0
-24 -63 0
-24 -67 0
-24 -70 0
-30 -54 0
-30 -63 0
-30 -67 0
-30 -70 0
-54 -63 0
-54 -67 0
-54 -70 0
-63 -67 0
-63 -70 0
-67 -70 0
4 11 24 30 54 63 67 70 0
-5 -15 0
-5 -25 0
-5 -42 0
-5 -71 0
-5 -72 0
-15 -25 0
-15 -42 0
-15 -71 0
-15 -72 0
-25 -42 0
-25 -71 0
-25 -72 0
-42 -71 0
-42 -72 0
-71 -72 0
5 15 25 42 71 72 0
-16 -60 0
-16 -64 0
-16 -71 0
-60 -64 0
-60 -71 0
-64 -71 0
16 60 64 71 0
-38 -43 0
-38 -50 0
-38 -61 0
-38 -65 0
-38 -68 0
-43 -50 0
-43 -61 0
-43 -65 0
-43 -68 0
-50 -61 0
-50 -65 0
-50 -68 0
-61 -65 0
-61 -68 0
-65 -68 0
38 43 50 61 65 68 0
-17 -20 0
-17 -55 0
-17 -62 0
-17 -66 0
-17 -72 0
-17 -73 0
-20 -55 0
-20 -62 0
-20 -66 0
-20 -72 0
-20 -73 0
-55 -62 0
-55 -66 0
-55 -72 0
-55 -73 0
-62 -66 0
-62 -72 0
-62 -73 0
-66 -72 0
-66 -73 0
-72 -73 0
17 20 55 62 66 72 73 0
-6 -18 0
-6 -26 0
-6 -34 0
-6 -51 0
-6 -58 0
-6 -69 0
-6 -70 0
-6 -73 0
-18 -26 0
-18 -34 0
-18 -51 0
-18 -58 0
-18 -69 0
-18 -70 0
-18 -73 0
-26 -34 0
-26 -51 0
-26 -58 0
-26 -69 0
-26 -70 0
-26 -73 0
-34 -51 0
-34 -58 0
-34 -69 0
-34 -70 0
-34 -73 0
-51 -58 0
-51 -69 0
-51 -70 0
-51 -73 0
-58 -69 0
-58 -70 0
-58 -73 0
-69 -70 0
-69 -73 0
-70 -73 0
6 18 26 34 51 58 69 70 73 0
